1 10 66 240 3 1000
100000
100000
100 100
100 100
100 100
100 100
100 100
100 100
100 100
100 100
100 100
100 100
   0    1   38
   0    2   43
   0    3   35
   0    4   44
   0    5   41
   0    6   45
   0    7   38
   0    8   40
   0    9   44
   0   10   38
   0   11   36
   1    2    5
   1    3   15
   1    4    8
   1    5   12
   1    6   10
   1    7   17
   1    8   19
   1    9   16
   1   10   57
   1   11   52
   2    3   20
   2    4   13
   2    5   17
   2    6   15
   2    7   22
   2    8   24
   2    9   21
   2   10   62
   2   11   57
   3    4   20
   3    5   15
   3    6   20
   3    7   14
   3    8   17
   3    9   18
   3   10   51
   3   11   47
   4    5   15
   4    6   12
   4    7   20
   4    8   22
   4    9   18
   4   10   61
   4   11   56
   5    6   15
   5    7   15
   5    8   17
   5    9   15
   5   10   56
   5   11   51
   6    7   20
   6    8   21
   6    9   17
   6   10   60
   6   11   56
   7    8   13
   7    9   15
   7   10   50
   7   11   45
   8    9   15
   8   10   50
   8   11   45
   9   10   55
   9   11   50
  10   11   15
